experiments/sat_smt/run/sat-r/results/sally.res
solved=true
solvingTime=45.582599639892578125
nActions=13