experiments/sat_smt/run/sat-r/results/sally.out
Timesteps: 1
s UNSATISFIABLE
real 0.16
user 0.02
sys 0.00
Timesteps: 2
s UNSATISFIABLE
real 0.18
user 0.03
sys 0.00
Timesteps: 3
s UNSATISFIABLE
real 0.20
user 0.06
sys 0.00
Timesteps: 4
s UNSATISFIABLE
real 0.27
user 0.11
sys 0.00
Timesteps: 5
s UNSATISFIABLE
real 0.34
user 0.22
sys 0.01
Timesteps: 6
s UNSATISFIABLE
real 0.61
user 0.48
sys 0.00
Timesteps: 7
s UNSATISFIABLE
real 0.78
user 0.60
sys 0.01
Timesteps: 8
s UNSATISFIABLE
real 1.27
user 1.06
sys 0.01
Timesteps: 9
s UNSATISFIABLE
real 2.00
user 1.79
sys 0.01
Timesteps: 10
s UNSATISFIABLE
real 4.21
user 3.64
sys 0.03
Timesteps: 11
s UNSATISFIABLE
real 7.86
user 7.15
sys 0.05
Timesteps: 12
s UNSATISFIABLE
real 13.79
user 13.03
sys 0.05
Timesteps: 13
s SATISFIABLE
real 15.24
user 14.41
sys 0.05
